25, 3617
4023, 19
1045, 66
1402, 39
4107, 87
1858, 91
1495, 29
5070, 64
1724, 83
3564, 87
2512, 56
2585, 86
3155, 21
5976, 91
1564, 49
1689, 64
1547, 66
4050, 93
3933, 39
5280, 54
1028, 37
3391, 38
1634, 5
4624, 2
3190, 30
5127, 100